# Solution for model problem_
# Objective value = 1.1046918899846305e+05
x(0_0) 0
x(0_1) 0
x(0_2) 0
x(0_3) 0
x(0_4) 0
x(0_5) 1
x(0_6) 0
x(0_7) 0
x(0_8) 0
x(0_9) 0
x(0_10) 0
x(0_11) 0
x(1_12) 0
x(1_13) 0
x(1_14) 0
x(1_15) 0
x(1_16) 0
x(1_17) 0
x(1_18) 0
x(1_19) 0
x(1_20) 0
x(1_21) 1
x(1_22) 0
x(2_23) 0
x(2_24) 0
x(2_25) 0
x(2_26) 0
x(2_27) 0
x(2_28) 0
x(2_29) 0
x(2_30) 1
x(2_31) 0
x(2_32) 0
x(2_33) 0
x(2_34) 0
x(2_35) 0
x(2_36) 0
x(2_37) 0
x(2_38) 0
x(2_39) 0
x(2_40) 0
x(2_41) 0
x(3_42) 0
x(3_43) 1
x(3_44) 0
x(3_45) 0
x(3_46) 0
x(3_47) 0
x(3_48) 0
x(3_49) 0
x(3_50) 0
x(3_51) 0
x(3_52) 0
x(3_53) 0
x(3_54) 0
x(3_55) 0
x(3_56) 0
x(3_57) 0
x(4_58) 0
x(4_59) 1
x(4_60) 0
x(4_61) 0
x(4_62) 0
x(4_63) 0
x(4_64) 0
x(4_65) 0
x(4_66) 0
x(4_67) 0
x(4_68) 0
x(4_69) 0
x(4_70) 0
x(4_71) 0
x(4_72) 0
x(4_73) 0
x(4_74) 0
x(4_75) 0
x(4_76) 0
x(4_77) 0
x(5_78) 0
x(5_79) 0
x(5_80) 0
x(5_81) 0
x(5_82) 0
x(5_83) 0
x(5_84) 0
x(5_85) 1
x(5_86) 0
x(5_87) 0
x(6_88) 0
x(6_89) 0
x(6_90) 0
x(6_91) 0
x(6_92) 0
x(6_93) 0
x(6_94) 1
x(6_95) 0
x(6_96) 0
x(6_97) 0
x(6_98) 0
x(6_99) 0
x(6_100) 0
x(6_101) 0
x(6_102) 0
x(6_103) 0
x(6_104) 0
x(7_105) 0
x(7_106) 0
x(7_107) 0
x(7_108) 1
x(7_109) 0
x(7_110) 0
x(7_111) 0
x(7_112) 0
x(7_113) 0
x(7_114) 0
x(7_115) 0
x(8_116) 0
x(8_117) 0
x(8_118) 0
x(8_119) 0
x(8_120) 0
x(8_121) 0
x(8_122) 1
x(8_123) 0
x(8_124) 0
x(8_125) 0
x(9_126) 0
x(9_127) 0
x(9_128) 1
x(9_129) 0
x(9_130) 0
x(9_131) 0
x(9_132) 0
x(9_133) 0
x(9_134) 0
x(9_135) 0
x(9_136) 0
x(10_137) 0
x(10_138) 0
x(10_139) 0
x(10_140) 0
x(10_141) 0
x(10_142) 0
x(10_143) 0
x(10_144) 1
x(10_145) 0
x(10_146) 0
x(10_147) 0
x(11_148) 0
x(11_149) 0
x(11_150) 0
x(11_151) 0
x(11_152) 0
x(11_153) 0
x(11_154) 0
x(11_155) 0
x(11_156) 0
x(11_157) 0
x(11_158) 0
x(11_159) 0
x(11_160) 0
x(11_161) 0
x(11_162) 0
x(11_163) 0
x(11_164) 1
x(11_165) 0
x(12_166) 0
x(12_167) 0
x(12_168) 0
x(12_169) 0
x(12_170) 0
x(12_171) 0
x(12_172) 0
x(12_173) 0
x(12_174) 0
x(12_175) 0
x(12_176) 0
x(12_177) 0
x(12_178) 1
x(12_179) 0
x(12_180) 0
x(13_181) 0
x(13_182) 0
x(13_183) 0
x(13_184) 0
x(13_185) 0
x(13_186) 0
x(13_187) 0
x(13_188) 0
x(13_189) 0
x(13_190) 0
x(13_191) 0
x(13_192) 0
x(13_193) 1
x(13_194) 0
x(13_195) 0
x(14_196) 0
x(14_197) 1
x(14_198) 0
x(14_199) 0
x(14_200) 0
x(14_201) 0
x(14_202) 0
x(14_203) 0
x(14_204) 0
x(14_205) 0
x(14_206) 0
x(14_207) 0
x(14_208) 0
x(14_209) 0
x(14_210) 0
x(14_211) 0
x(15_212) 0
x(15_213) 0
x(15_214) 0
x(15_215) 0
x(15_216) 0
x(15_217) 0
x(15_218) 0
x(15_219) 1
x(15_220) 0
x(15_221) 0
x(15_222) 0
x(15_223) 0
x(15_224) 0
x(15_225) 0
x(15_226) 0
x(15_227) 0
x(15_228) 0
x(15_229) 0
x(15_230) 0
x(16_231) 0
x(16_232) 0
x(16_233) 0
x(16_234) 0
x(16_235) 0
x(16_236) 0
x(16_237) 0
x(16_238) 0
x(16_239) 0
x(16_240) 0
x(16_241) 0
x(16_242) 1
x(16_243) 0
x(16_244) 0
x(16_245) 0
x(16_246) 0
x(16_247) 0
x(16_248) 0
x(16_249) 0
x(17_250) 0
x(17_251) 0
x(17_252) 0
x(17_253) 0
x(17_254) 0
x(17_255) 0
x(17_256) 0
x(17_257) 1
x(17_258) 0
x(17_259) 0
x(17_260) 0
x(17_261) 0
x(17_262) 0
x(17_263) 0
x(17_264) 0
x(17_265) 0
x(17_266) 0
x(17_267) 0
x(17_268) 0
x(17_269) 0
x(18_270) 0
x(18_271) 0
x(18_272) 0
x(18_273) 0
x(18_274) 1
x(18_275) 0
x(18_276) 0
x(18_277) 0
x(18_278) 0
x(18_279) 0
x(18_280) 0
x(18_281) 0
x(18_282) 0
x(18_283) 0
x(18_284) 0
x(18_285) 0
x(18_286) 0
x(19_287) 0
x(19_288) 0
x(19_289) 0
x(19_290) 0
x(19_291) 0
x(19_292) 0
x(19_293) 0
x(19_294) 0
x(19_295) 0
x(19_296) 0
x(19_297) 0
x(19_298) 0
x(19_299) 1
x(19_300) 0
x(20_301) 0
x(20_302) 0
x(20_303) 0
x(20_304) 0
x(20_305) 0
x(20_306) 0
x(20_307) 1
x(20_308) 0
x(20_309) 0
x(20_310) 0
x(20_311) 0
x(20_312) 0
x(20_313) 0
x(20_314) 0
x(20_315) 0
x(20_316) 0
x(20_317) 0
x(20_318) 0
x(20_319) 0
x(20_320) 0
x(21_321) 0
x(21_322) 0
x(21_323) 0
x(21_324) 0
x(21_325) 0
x(21_326) 0
x(21_327) 0
x(21_328) 0
x(21_329) 0
x(21_330) 1
x(21_331) 0
x(21_332) 0
x(21_333) 0
x(21_334) 0
x(21_335) 0
x(21_336) 0
x(21_337) 0
x(21_338) 0
x(21_339) 0
x(21_340) 0
x(22_341) 0
x(22_342) 0
x(22_343) 1
x(22_344) 0
x(22_345) 0
x(22_346) 0
x(22_347) 0
x(22_348) 0
x(22_349) 0
x(22_350) 0
x(22_351) 0
x(22_352) 0
x(22_353) 0
x(22_354) 0
x(22_355) 0
x(22_356) 0
x(22_357) 0
x(22_358) 0
x(22_359) 0
x(22_360) 0
x(23_361) 0
x(23_362) 0
x(23_363) 0
x(23_364) 0
x(23_365) 0
x(23_366) 0
x(23_367) 1
x(23_368) 0
x(23_369) 0
x(23_370) 0
x(23_371) 0
x(24_372) 0
x(24_373) 0
x(24_374) 0
x(24_375) 0
x(24_376) 0
x(24_377) 0
x(24_378) 0
x(24_379) 0
x(24_380) 0
x(24_381) 0
x(24_382) 1
x(25_383) 1
x(25_384) 0
x(25_385) 0
x(25_386) 0
x(25_387) 0
x(25_388) 0
x(25_389) 0
x(25_390) 0
x(25_391) 0
x(25_392) 0
x(26_393) 1
x(26_394) 0
x(26_395) 0
x(26_396) 0
x(26_397) 0
x(26_398) 0
x(26_399) 0
x(26_400) 0
x(26_401) 0
x(26_402) 0
x(26_403) 0
x(26_404) 0
x(27_405) 0
x(27_406) 0
x(27_407) 0
x(27_408) 0
x(27_409) 0
x(27_410) 0
x(27_411) 0
x(27_412) 1
x(27_413) 0
x(27_414) 0
x(27_415) 0
x(28_416) 0
x(28_417) 0
x(28_418) 0
x(28_419) 0
x(28_420) 0
x(28_421) 0
x(28_422) 0
x(28_423) 1
x(28_424) 0
x(28_425) 0
x(28_426) 0
x(28_427) 0
x(28_428) 0
x(28_429) 0
x(28_430) 0
x(28_431) 0
x(28_432) 0
x(28_433) 0
x(28_434) 0
x(29_435) 1
x(29_436) 0
x(29_437) 0
x(29_438) 0
x(29_439) 0
x(29_440) 0
x(29_441) 0
x(29_442) 0
x(29_443) 0
x(29_444) 0
x(29_445) 0
x(29_446) 0
x(29_447) 0
x(29_448) 0
x(29_449) 0
x(29_450) 0
x(30_451) 0
x(30_452) 0
x(30_453) 0
x(30_454) 0
x(30_455) 0
x(30_456) 1
x(30_457) 0
x(30_458) 0
x(30_459) 0
x(30_460) 0
x(30_461) 0
x(30_462) 0
x(30_463) 0
x(31_464) 0
x(31_465) 0
x(31_466) 0
x(31_467) 0
x(31_468) 1
x(31_469) 0
x(31_470) 0
x(31_471) 0
x(31_472) 0
x(31_473) 0
x(31_474) 0
x(31_475) 0
x(31_476) 0
x(31_477) 0
x(31_478) 0
x(31_479) 0
x(31_480) 0
x(31_481) 0
x(32_482) 0
x(32_483) 0
x(32_484) 0
x(32_485) 0
x(32_486) 0
x(32_487) 0
x(32_488) 0
x(32_489) 0
x(32_490) 0
x(32_491) 0
x(32_492) 0
x(32_493) 0
x(32_494) 0
x(32_495) 0
x(32_496) 1
x(32_497) 0
x(32_498) 0
x(33_499) 0
x(33_500) 0
x(33_501) 0
x(33_502) 0
x(33_503) 0
x(33_504) 0
x(33_505) 0
x(33_506) 0
x(33_507) 0
x(33_508) 1
x(33_509) 0
x(33_510) 0
x(33_511) 0
x(33_512) 0
x(33_513) 0
x(33_514) 0
x(33_515) 0
x(33_516) 0
x(33_517) 0
x(34_518) 0
x(34_519) 0
x(34_520) 0
x(34_521) 0
x(34_522) 1
x(34_523) 0
x(34_524) 0
x(34_525) 0
x(34_526) 0
x(34_527) 0
x(34_528) 0
x(35_529) 0
x(35_530) 0
x(35_531) 0
x(35_532) 0
x(35_533) 0
x(35_534) 0
x(35_535) 0
x(35_536) 0
x(35_537) 0
x(35_538) 1
x(35_539) 0
x(36_540) 0
x(36_541) 0
x(36_542) 0
x(36_543) 0
x(36_544) 0
x(36_545) 0
x(36_546) 0
x(36_547) 0
x(36_548) 0
x(36_549) 0
x(36_550) 0
x(36_551) 0
x(36_552) 0
x(36_553) 1
x(37_554) 0
x(37_555) 0
x(37_556) 0
x(37_557) 0
x(37_558) 0
x(37_559) 0
x(37_560) 1
x(37_561) 0
x(37_562) 0
x(37_563) 0
x(38_564) 0
x(38_565) 0
x(38_566) 0
x(38_567) 0
x(38_568) 0
x(38_569) 0
x(38_570) 0
x(38_571) 0
x(38_572) 0
x(38_573) 0
x(38_574) 1
x(38_575) 0
x(38_576) 0
x(39_577) 0
x(39_578) 0
x(39_579) 0
x(39_580) 0
x(39_581) 0
x(39_582) 0
x(39_583) 0
x(39_584) 0
x(39_585) 0
x(39_586) 0
x(39_587) 0
x(39_588) 0
x(39_589) 0
x(39_590) 0
x(39_591) 0
x(39_592) 0
x(39_593) 0
x(39_594) 0
x(39_595) 1
x(40_596) 0
x(40_597) 0
x(40_598) 0
x(40_599) 0
x(40_600) 0
x(40_601) 0
x(40_602) 0
x(40_603) 1
x(40_604) 0
x(40_605) 0
x(40_606) 0
x(41_607) 0
x(41_608) 0
x(41_609) 0
x(41_610) 0
x(41_611) 0
x(41_612) 0
x(41_613) 0
x(41_614) 0
x(41_615) 1
x(41_616) 0
x(41_617) 0
x(41_618) 0
x(42_619) 0
x(42_620) 0
x(42_621) 1
x(42_622) 0
x(42_623) 0
x(42_624) 0
x(42_625) 0
x(42_626) 0
x(42_627) 0
x(42_628) 0
x(42_629) 0
x(42_630) 0
x(42_631) 0
x(43_632) 0
x(43_633) 0
x(43_634) 0
x(43_635) 0
x(43_636) 0
x(43_637) 0
x(43_638) 0
x(43_639) 0
x(43_640) 0
x(43_641) 0
x(43_642) 0
x(43_643) 1
x(43_644) 0
x(43_645) 0
x(43_646) 0
x(43_647) 0
x(43_648) 0
x(43_649) 0
x(43_650) 0
x(44_651) 0
x(44_652) 0
x(44_653) 0
x(44_654) 1
x(44_655) 0
x(44_656) 0
x(44_657) 0
x(44_658) 0
x(44_659) 0
x(44_660) 0
x(44_661) 0
x(44_662) 0
x(44_663) 0
x(44_664) 0
x(44_665) 0
x(44_666) 0
x(44_667) 0
x(44_668) 0
x(45_669) 0
x(45_670) 0
x(45_671) 0
x(45_672) 0
x(45_673) 0
x(45_674) 0
x(45_675) 0
x(45_676) 1
x(45_677) 0
x(45_678) 0
x(46_679) 0
x(46_680) 0
x(46_681) 0
x(46_682) 0
x(46_683) 0
x(46_684) 0
x(46_685) 0
x(46_686) 0
x(46_687) 0
x(46_688) 0
x(46_689) 0
x(46_690) 0
x(46_691) 1
x(46_692) 0
x(46_693) 0
x(46_694) 0
x(46_695) 0
x(47_696) 0
x(47_697) 1
x(47_698) 0
x(47_699) 0
x(47_700) 0
x(47_701) 0
x(47_702) 0
x(47_703) 0
x(47_704) 0
x(47_705) 0
x(47_706) 0
x(47_707) 0
x(48_708) 0
x(48_709) 0
x(48_710) 0
x(48_711) 0
x(48_712) 0
x(48_713) 0
x(48_714) 0
x(48_715) 0
x(48_716) 0
x(48_717) 0
x(48_718) 0
x(48_719) 1
x(48_720) 0
x(48_721) 0
x(48_722) 0
x(48_723) 0
x(48_724) 0
x(48_725) 0
x(48_726) 0
x(48_727) 0
x(49_728) 0
x(49_729) 0
x(49_730) 0
x(49_731) 0
x(49_732) 0
x(49_733) 0
x(49_734) 0
x(49_735) 0
x(49_736) 0
x(49_737) 0
x(49_738) 1
x(49_739) 0
x(49_740) 0
x(50_741) 0
x(50_742) 0
x(50_743) 0
x(50_744) 1
x(50_745) 0
x(50_746) 0
x(50_747) 0
x(50_748) 0
x(50_749) 0
x(50_750) 0
x(50_751) 0
x(51_752) 0
x(51_753) 0
x(51_754) 0
x(51_755) 0
x(51_756) 0
x(51_757) 0
x(51_758) 0
x(51_759) 1
x(51_760) 0
x(51_761) 0
x(51_762) 0
x(51_763) 0
x(51_764) 0
x(51_765) 0
x(51_766) 0
x(51_767) 0
x(51_768) 0
x(52_769) 0
x(52_770) 0
x(52_771) 0
x(52_772) 0
x(52_773) 0
x(52_774) 0
x(52_775) 0
x(52_776) 0
x(52_777) 0
x(52_778) 0
x(52_779) 0
x(52_780) 1
x(52_781) 0
x(53_782) 0
x(53_783) 0
x(53_784) 1
x(53_785) 0
x(53_786) 0
x(53_787) 0
x(53_788) 0
x(53_789) 0
x(53_790) 0
x(53_791) 0
x(53_792) 0
x(54_793) 1
x(54_794) 0
x(54_795) 0
x(54_796) 0
x(54_797) 0
x(54_798) 0
x(54_799) 0
x(54_800) 0
x(54_801) 0
x(54_802) 0
x(54_803) 0
x(54_804) 0
x(54_805) 0
x(54_806) 0
x(54_807) 0
x(55_808) 0
x(55_809) 0
x(55_810) 0
x(55_811) 0
x(55_812) 0
x(55_813) 0
x(55_814) 0
x(55_815) 0
x(55_816) 0
x(55_817) 0
x(55_818) 1
x(55_819) 0
x(56_820) 0
x(56_821) 0
x(56_822) 0
x(56_823) 1
x(56_824) 0
x(56_825) 0
x(56_826) 0
x(56_827) 0
x(56_828) 0
x(56_829) 0
x(56_830) 0
x(56_831) 0
x(56_832) 0
x(56_833) 0
x(57_834) 0
x(57_835) 0
x(57_836) 1
x(57_837) 0
x(57_838) 0
x(57_839) 0
x(57_840) 0
x(57_841) 0
x(57_842) 0
x(57_843) 0
x(57_844) 0
x_1_0 2.4477681056037545e+02
s_1_0 0
z_1_0 0
x_1_1 0
s_1_1 1.4489193653280381e+00
z_1_1 1
x_1_2 0
s_1_2 1.8654266548110172e+00
z_1_2 1
x_1_3 4.9999625399806660e+04
s_1_3 5.0000374600193347e+04
z_1_3 5.0000374600193342e-01
x_1_4 0
s_1_4 2.0421109595627058e+00
z_1_4 1
x_1_5 0
s_1_5 1.5292407730594277e+00
z_1_5 1
x_1_6 0
s_1_6 1.3382628987892531e+00
z_1_6 1
x_1_7 2.4595214815624058e+02
s_1_7 0
z_1_7 0
x_1_8 2.4335438645631075e+02
s_1_8 0
z_1_8 0
x_1_9 2.4395725963730365e+02
s_1_9 0
z_1_9 0
x_1_10 2.4515250205993652e+02
s_1_10 0
z_1_10 0
x_1_11 2.4467076822929084e+02
s_1_11 0
z_1_11 0
x_1_12 4.9999498091163987e+04
s_1_12 5.0000501908836013e+04
z_1_12 5.0000501908836015e-01
x_1_13 0
s_1_13 1.6155883123865351e+00
z_1_13 1
x_1_14 2.4210063758119941e+02
s_1_14 0
z_1_14 0
x_1_15 0
s_1_15 1.7470111697621178e+00
z_1_15 1
x_1_16 4.9999287665636162e+04
s_1_16 5.0000712334363838e+04
z_1_16 5.0000712334363839e-01
x_1_17 0
s_1_17 2.0554880964336917e+00
z_1_17 1
x_1_18 2.4281794998189434e+02
s_1_18 0
z_1_18 0
x_1_19 0
s_1_19 1.2215823571896181e+00
z_1_19 1
x_1_20 242.693937625736
s_1_20 0
z_1_20 0
x_1_21 2.4530174564756453e+02
s_1_21 0
z_1_21 0
x_1_22 4.9999176487152494e+04
s_1_22 5.0000823512847506e+04
z_1_22 0.500008235128475
x_1_23 2.4561755434446968e+02
s_1_23 0
z_1_23 0
x_1_24 0
s_1_24 1.7342601401614957e+00
z_1_24 1
x_1_25 2.4354870420508087e+02
s_1_25 0
z_1_25 0
x_1_26 4.9999305078699210e+04
s_1_26 50000.6949213008
z_1_26 5.0000694921300792e-01
x_1_27 2.4487497559888288e+02
s_1_27 0
z_1_27 0
x_1_28 0
s_1_28 1.4540833402425051e+00
z_1_28 1
x_1_29 2.4227893019281328e+02
s_1_29 0
z_1_29 0
x_1_30 2.4390885598585010e+02
s_1_30 0
z_1_30 0
x_1_31 49999.2776661563
s_1_31 50000.7223338437
z_1_31 5.0000722333843706e-01
x_1_32 0
s_1_32 1.3525604023161577e+00
z_1_32 1
x_1_33 0
s_1_33 1.7414171878772322e+00
z_1_33 1
x_1_34 2.4411991786584258e+02
s_1_34 0
z_1_34 0
x_1_35 0
s_1_35 1.3717018793686293e+00
z_1_35 1
x_1_36 2.4227907075360417e+02
s_1_36 0
z_1_36 0
x_1_37 2.4247337185963988e+02
s_1_37 0
z_1_37 0
x_1_38 0
s_1_38 1.1604805821552873e+00
z_1_38 1
x_1_39 2.4210933647491038e+02
s_1_39 0
z_1_39 0
x_1_40 2.4361298299208283e+02
s_1_40 0
z_1_40 0
x_1_41 0
s_1_41 1.7954850345849991e+00
z_1_41 1
x_1_42 2.4274942054040730e+02
s_1_42 0
z_1_42 0
x_1_43 2.4387475159019232e+02
s_1_43 0
z_1_43 0
x_1_44 0
s_1_44 1.5364635230507702e+00
z_1_44 1
x_1_45 4.9999254318243737e+04
s_1_45 5.0000745681756263e+04
z_1_45 5.0000745681756265e-01
x_1_46 2.4196856236853637e+02
s_1_46 0
z_1_46 0
x_1_47 0
s_1_47 1.64262842212338
z_1_47 1
x_1_48 2.4254284890275449e+02
s_1_48 0
z_1_48 0
x_1_49 2.4458878872124478e+02
s_1_49 0
z_1_49 0
x_1_50 2.4443604422733188e+02
s_1_50 0
z_1_50 0
x_1_51 0
s_1_51 1.2827716739848256e+00
z_1_51 1
x_1_52 2.4212571961060166e+02
s_1_52 0
z_1_52 0
x_1_53 2.4335123607143760e+02
s_1_53 0
z_1_53 0
x_1_54 2.4539972246438265e+02
s_1_54 0
z_1_54 0
x_1_55 4.9999158120199929e+04
s_1_55 5.0000841879800078e+04
z_1_55 5.0000841879800073e-01
x_1_56 2.4336086876690388e+02
s_1_56 0
z_1_56 0
x_1_57 0
s_1_57 1.6989394382108003e+00
z_1_57 1
x_1_58 2.4528907813690603e+02
s_1_58 0
z_1_58 0
x_1_59 4.9999292022507871e+04
s_1_59 5.0000707977492129e+04
z_1_59 5.0000707977492131e-01
x_1_60 2.4395863212924451e+02
s_1_60 0
z_1_60 0
x_1_61 0
s_1_61 1.1719175388570875e+00
z_1_61 1
x_1_62 2.4276321851834655e+02
s_1_62 0
z_1_62 0
x_1_63 2.4374760309280828e+02
s_1_63 0
z_1_63 0
x_1_64 2.4375755433365703e+02
s_1_64 0
z_1_64 0
x_1_65 2.4549482098408043e+02
s_1_65 0
z_1_65 0
x_1_66 2.4353400107656489e+02
s_1_66 0
z_1_66 0
x_1_67 2.4539078781753778e+02
s_1_67 0
z_1_67 0
x_1_68 0
s_1_68 1.1015702033182606e+00
z_1_68 1
x_1_69 2.4559940100117819e+02
s_1_69 0
z_1_69 0
x_1_70 2.4477631316147745e+02
s_1_70 0
z_1_70 0
x_1_71 2.4215935130789876e+02
s_1_71 0
z_1_71 0
x_1_72 2.4236134122498333e+02
s_1_72 0
z_1_72 0
x_1_73 2.4278809935040772e+02
s_1_73 0
z_1_73 0
x_1_74 4.9999029206942389e+04
s_1_74 5.0000970793057611e+04
z_1_74 5.0000970793057609e-01
x_1_75 2.4593789132963866e+02
s_1_75 0
z_1_75 0
x_1_76 2.4255292215384543e+02
s_1_76 0
z_1_76 0
x_1_77 0
s_1_77 1.9891288546059513e+00
z_1_77 1
x_1_78 0
s_1_78 1.1352538587525487e+00
z_1_78 1
x_1_79 0
s_1_79 1.3665950513095595e+00
z_1_79 1
x_1_80 0
s_1_80 2.0151692412327975e+00
z_1_80 1
x_1_81 2.4325005043484271e+02
s_1_81 0
z_1_81 0
x_1_82 2.4464973253570497e+02
s_1_82 0
z_1_82 0
x_1_83 2.4550850227847695e+02
s_1_83 0
z_1_83 0
x_1_84 2.4543769711628556e+02
s_1_84 0
z_1_84 0
x_1_85 0
s_1_85 1.6067521693184972e+00
z_1_85 1
x_1_86 0
s_1_86 2.1162676406092942e+00
z_1_86 1
x_1_87 0
s_1_87 1.0960707118501887e+00
z_1_87 1
x_1_88 2.4379795723408461e+02
s_1_88 0
z_1_88 0
x_1_89 2.4272072095982730e+02
s_1_89 0
z_1_89 0
x_1_90 0
s_1_90 1.8917131863126997e+00
z_1_90 1
x_1_91 2.4315708718728274e+02
s_1_91 0
z_1_91 0
x_1_92 0
s_1_92 7.1412762370891869e-01
z_1_92 1
x_1_93 0
s_1_93 1.4124179624486715e+00
z_1_93 1
x_1_94 0
s_1_94 8.4782712171727326e-01
z_1_94 1
x_1_95 0
s_1_95 1.7786534524057060e+00
z_1_95 1
x_1_96 0
s_1_96 1.4526303224265575e+00
z_1_96 1
x_1_97 2.4538657852169126e+02
s_1_97 0
z_1_97 0
x_1_98 4.9999076866045420e+04
s_1_98 5.0000923133954580e+04
z_1_98 5.0000923133954578e-01
x_1_99 0
s_1_99 1.4633539300411940e+00
z_1_99 1
x_1_100 4.9999230754737742e+04
s_1_100 5.0000769245262258e+04
z_1_100 5.0000769245262255e-01
x_1_101 2.4395908452663571e+02
s_1_101 0
z_1_101 0
x_1_102 2.4317673211824149e+02
s_1_102 0
z_1_102 0
x_1_103 2.4529190322291106e+02
s_1_103 0
z_1_103 0
x_1_104 0
s_1_104 1.3298963846755214e+00
z_1_104 1
x_1_105 0
s_1_105 9.3820737977512181e-01
z_1_105 1
x_1_106 2.4489821361610666e+02
s_1_106 0
z_1_106 0
x_1_107 4.9999545631963469e+04
s_1_107 5.0000454368036531e+04
z_1_107 5.0000454368036529e-01
x_1_108 4.9999426840618020e+04
s_1_108 5.0000573159381980e+04
z_1_108 5.0000573159381978e-01
x_1_109 2.4455616622068919e+02
s_1_109 0
z_1_109 0
x_1_110 2.4343396360240877e+02
s_1_110 0
z_1_110 0
x_1_111 2.4464418092742562e+02
s_1_111 0
z_1_111 0
x_1_112 2.4509930726722814e+02
s_1_112 0
z_1_112 0
x_1_113 2.4287675275839865e+02
s_1_113 0
z_1_113 0
x_1_114 4.9999305183748656e+04
s_1_114 5.0000694816251344e+04
z_1_114 5.0000694816251345e-01
x_1_115 2.4534507597237825e+02
s_1_115 0
z_1_115 0
x_1_116 0
s_1_116 1.3230590082239360e+00
z_1_116 1
x_1_117 0
s_1_117 1.9942388247000054e+00
z_1_117 1
x_1_118 2.4230256976676174e+02
s_1_118 0
z_1_118 0
x_1_119 2.4524411620059982e+02
s_1_119 0
z_1_119 0
x_1_120 2.4243339160270989e+02
s_1_120 0
z_1_120 0
x_1_121 0
s_1_121 1.0429856916889548e+00
z_1_121 1
x_1_122 0
s_1_122 9.8419075630954467e-01
z_1_122 1
x_1_123 2.4432255935296416e+02
s_1_123 0
z_1_123 0
x_1_124 2.4539737966097891e+02
s_1_124 0
z_1_124 0
x_1_125 0
s_1_125 1.6842620704555884e+00
z_1_125 1
x_1_126 2.4238016125885770e+02
s_1_126 0
z_1_126 0
x_1_127 0
s_1_127 1.7409698801930062e+00
z_1_127 1
x_1_128 0
s_1_128 1.0119010083217290e+00
z_1_128 1
x_1_129 2.4259065161750186e+02
s_1_129 0
z_1_129 0
x_1_130 2.4283546075923368e+02
s_1_130 0
z_1_130 0
x_1_131 0
s_1_131 1.7182423837366514e+00
z_1_131 1
x_1_132 0
s_1_132 1.3868437772325706e+00
z_1_132 1
x_1_133 0
s_1_133 1.4933881978504360e+00
z_1_133 1
x_1_134 0
s_1_134 1.2177732214477146e+00
z_1_134 1
x_1_135 2.4534321394283324e+02
s_1_135 0
z_1_135 0
x_1_136 4.9999786496604051e+04
s_1_136 5.0000213503395957e+04
z_1_136 5.0000213503395952e-01
x_1_137 2.4536007187329233e+02
s_1_137 0
z_1_137 0
x_1_138 2.4421542597003281e+02
s_1_138 0
z_1_138 0
x_1_139 2.4208637654595077e+02
s_1_139 0
z_1_139 0
x_1_140 0
s_1_140 1.74109987472184
z_1_140 1
x_1_141 4.9999284382607555e+04
s_1_141 5.0000715617392445e+04
z_1_141 5.0000715617392444e-01
x_1_142 0
s_1_142 1.2973775944265071e+00
z_1_142 1
x_1_143 2.4364472993090749e+02
s_1_143 0
z_1_143 0
x_1_144 0
s_1_144 2.1263142501120456e+00
z_1_144 1
x_1_145 0
s_1_145 1.6358704142039642e+00
z_1_145 1
x_1_146 2.4225112542044371e+02
s_1_146 0
z_1_146 0
x_1_147 2.4317439829232171e+02
s_1_147 0
z_1_147 0
x_1_148 2.4312722108978778e+02
s_1_148 0
z_1_148 0
x_1_149 0
s_1_149 1.3784498510940466e+00
z_1_149 1
x_1_150 2.4375280330062378e+02
s_1_150 0
z_1_150 0
x_1_151 2.4331433515995741e+02
s_1_151 0
z_1_151 0
x_1_152 2.4541177402436733e+02
s_1_152 0
z_1_152 0
x_1_153 0
s_1_153 2.0406107309972867e+00
z_1_153 1
x_1_154 0
s_1_154 1.7369803737674374e+00
z_1_154 1
x_1_155 4.9999165928370989e+04
s_1_155 5.0000834071629011e+04
z_1_155 5.0000834071629008e-01
x_1_156 0
s_1_156 1.9120208571548574e+00
z_1_156 1
x_1_157 49999.1316763293
s_1_157 50000.8683236707
z_1_157 0.500008683236707
x_1_158 2.4409959114342928e+02
s_1_158 0
z_1_158 0
x_1_159 4.9999149292361035e+04
s_1_159 5.0000850707638965e+04
z_1_159 5.0000850707638966e-01
x_2_0 1.0935591299846306e+05
